sat
(
  (define-fun K () String
    "")
  (define-fun J () String
    "a")
  (define-fun Q () String
    "")
  (define-fun F () String
    "")
  (define-fun E () String
    "")
  (define-fun H () String
    "")
  (define-fun L () String
    "")
  (define-fun N () String
    "aa")
)
